multiobj/instances/reallike/Ter-rl-6-2-0.00-1.0-2.in
6 2
0 46 118 40 96 98 
46 0 88 10 53 127 
118 88 0 85 53 137 
40 10 85 0 56 117 
96 53 53 56 0 154 
98 127 137 117 154 0 
0 57 132 12 0 1821 
57 0 891 326 0 10792 
132 891 0 0 3 37 
12 326 0 0 7 6083 
0 0 3 7 0 8552 
1821 10792 37 6083 8552 0 
0 0 0 40639 0 0 
0 0 370 0 0 39589 
0 370 0 0 0 37955 
40639 0 0 0 388 884 
0 0 0 388 0 0 
0 39589 37955 884 0 0 
