multiobj/solutions/reallike/Ter-rl-6-2-0.00-1.0-2.out
4 2
2 1 5 4 0 3 
2209798 14248468 
5 1 4 0 2 3 
2770472 13209492 
5 3 4 0 2 1 
2931272 12994590 
2 1 0 4 5 3 
3372562 8388466 
